# 
# This is the geometry file that corresponds to the current relaxation step.
# If you do not want this file to be written, set the "write_restart_geometry" flag to .false.
#  aims_uuid : 06C7AE23-3EAC-44B9-AB7E-CB22A95A60BD                                
# 
lattice_vector      7.24300003      0.00000000      0.00000000
lattice_vector      0.00000000      9.31000042      0.00000000
lattice_vector      0.00000000      0.00000000      6.75600004
atom       6.79224394      1.32445557      0.03556372 C
atom       0.45076129      7.98548506      6.72051697 C
atom       4.07226137      7.98548506      3.41348315 C
atom       3.17074398      1.32445558      3.34243635 C
atom       0.45076127      5.97951550      3.34251699 C
atom       6.79224394      3.33054456      3.41356378 C
atom       3.17074395      3.33054455      6.72043634 C
atom       4.07226134      5.97951549      0.03548309 C
atom       0.55940912      0.90261255      0.90640426 C
atom       6.68359431      8.40732781      5.84967742 C
atom       3.06209436      8.40732782      4.28432270 C
atom       4.18090919      0.90261255      2.47159581 C
atom       6.68359429      5.55767273      2.47167743 C
atom       0.55940910      3.75238758      4.28440432 C
atom       4.18090916      3.75238758      5.84959580 C
atom       3.06209433      5.55767273      0.90632264 C
atom       1.01417079      8.89014972      0.87111978 C
atom       6.22883062      0.41978944      5.88496343 C
atom       2.60733067      0.41978944      4.24903669 C
atom       4.63567088      8.89014973      2.50688031 C
atom       6.22883062      4.23521069      2.50696343 C
atom       1.01417078      5.07485084      4.24911983 C
atom       4.63567084      5.07485082      5.88488029 C
atom       2.60733064      4.23521069      0.87103663 C
atom       6.44425084      2.35908937      0.06539674 H
atom       0.79875047      6.95085031      6.69068378 H
atom       4.42025056      6.95085031      3.44331635 H
atom       2.82275088      2.35908937      3.31260332 H
atom       0.79875043      7.01415026      3.31268379 H
atom       6.44425083      2.29591076      3.44339678 H
atom       2.82275085      2.29591076      6.69060331 H
atom       4.42025053      7.01415024      0.06531628 H
atom       0.99106599      1.60178792      1.62334673 H
atom       6.25193569      7.70814761      5.13274108 H
atom       2.63043570      7.70814763      5.00125903 H
atom       4.61256604      1.60178793      1.75465334 H
atom       6.25193565      6.25685294      1.75474111 H
atom       0.99106597      3.05321221      5.00134679 H
atom       4.61256601      3.05321219      5.13265332 H
atom       2.63043567      6.25685292      1.62325897 H
atom       1.81145308      8.57770923      1.54876271 H
atom       5.43153379      0.73223054      5.20733746 H
atom       1.81003385      0.73223054      4.92666266 H
atom       5.43295319      8.57770924      1.82923740 H
atom       5.43153378      3.92276956      1.82933749 H
atom       1.81145306      5.38729131      4.92676277 H
atom       5.43295314      5.38729131      5.20723736 H
atom       1.81003381      3.92276959      1.54866260 H
# 
# What follows is the current estimated Hessian matrix constructed by the BFGS algorithm.
# This is NOT the true Hessian matrix of the system.
# If you do not want this information here, switch it off using the "hessian_to_restart_geometry" keyword.
# 
trust_radius             0.4000000060
hessian_file
