name
1.0
	6.32955069	0.0	0.0
	0.82565559	7.68578109	0.0
	0.56944206	3.23095675	14.14816778
	C	H
	44	28
Cartesian
5.59318296	3.32969948	0.81860024	
1.89133037	7.71566333	13.35876934	
4.6009864	2.76232234	1.65110373	
2.88352759	8.28303967	12.52626579	
4.77661191	2.65531302	3.03107797	
2.7079021	8.39004952	11.14629149	
3.78050628	2.07384876	3.88035843	
3.70400809	8.97151297	10.2970108	
3.97857024	1.97930328	5.235534	
3.50594397	9.06605873	8.94183514	
5.18460687	2.46209338	5.83111707	
2.2999062	8.58327098	8.34625229	
6.17068361	3.01793331	5.05378676	
1.31382878	8.02743266	9.12358294	
6.01162077	3.13769985	3.63498307	
1.47289225	7.90766488	10.54238661	
0.66765801	3.70124182	2.82446446	
6.81685442	7.34412381	11.35290537	
0.50172657	3.81283178	1.42449938	
6.98278618	7.23253229	12.75287036	
5.99304627	6.66885517	13.57587764	
1.49146665	4.37650825	0.60149202	
2.84460373	7.77898962	1.00711232	
4.63991323	3.26637615	13.17026352	
1.85770904	7.78742806	2.01962867	
5.62680931	3.25794079	12.15774848	
2.04469464	7.11946342	3.22962875	
5.43982465	3.92590704	10.94774906	
1.05671282	7.13961602	4.26643923	
6.42781011	3.90576123	9.91094181	
1.27155423	6.48673837	5.45341763	
6.21296954	4.55863984	8.72396371	
2.48412399	5.76476009	5.6787808	
5.00039582	5.2806103	8.49859659	
3.45794446	5.71395774	4.7124387	
4.0265717	5.3314058	9.46493544	
3.28301267	6.38690453	3.45955579	
4.20150419	4.65846086	10.71781945	
4.26045843	6.36454298	2.46495537	
3.22405702	4.68081998	11.71241885	
4.08604369	7.04534632	1.23795016	
3.3984725	4.00001809	12.93942496	
2.41209502	4.00687317	13.9400301	
5.07242131	7.03849153	0.23734524	
3.67560101	2.39733289	1.19784763	
3.80891343	8.64802775	12.979522	
2.85948165	1.70180146	3.42652566	
4.62503296	9.34356013	10.75084332	
3.21152249	1.51956651	5.86179559	
4.27299157	9.52579567	8.31557353	
5.32707669	2.38454354	6.91131881	
2.15743575	8.66082212	7.26605075	
0.77023554	3.38181704	5.49937473	
6.71427542	7.66355208	8.67799544	
1.59078359	4.06894175	3.27994423	
5.89372923	6.97642539	10.89742356	
0.10408929	0.65381511	1.84960035	
7.38042956	10.39155482	12.32777717	
6.46001053	7.6918437	4.09567452	
1.02451354	3.35353616	10.0817087	
6.84086221	6.51814773	6.23658793	
6.97321569	4.52723693	7.94079646	
2.63618561	5.24897116	6.62963789	
4.84833438	5.79639871	7.54773919	
4.38065083	5.15333282	4.87983628	
3.10386298	5.89202655	9.29753624	
5.18853887	5.81346977	2.63754711	
2.29597579	5.23189114	11.53982447	
5.06832432	6.30373005	13.12150077	
2.41618877	4.74163305	1.05586875	
1.48398711	4.5582168	13.76856635	
6.00052863	6.48714668	0.40880771	
