# 
# This is the geometry file that corresponds to the current relaxation step.
# If you do not want this file to be written, set the "write_restart_geometry" flag to .false.
#  aims_uuid : 33439B23-8C1E-46E2-A899-9486ABEBD449                                
# 
lattice_vector      5.43860738      0.00000000      0.00000000
lattice_vector     -0.02006085      5.40181292      0.00000000
lattice_vector     -2.60767585     -0.10302381      7.11263000
atom       1.73276320      5.20859699      6.25844875 C
atom       1.16786237      0.12163858      0.79439543 C
atom      -0.15484720      2.52557700      4.35705254 C
atom       3.05547341      2.80465829      2.69579295 C
atom       2.73331623      4.23494995      6.20226888 C
atom       0.16730903      1.09528546      0.85057563 C
atom      -1.17022727      1.56635375      4.38754887 C
atom       4.07085308      3.76388219      2.66529743 C
atom       4.48440088      0.98908888      0.02431477 C
atom      -1.58377556      4.34114650      7.02852986 C
atom      -0.25475052      3.62351285      3.49813301 C
atom       3.15537636      1.70672292      3.55471295 C
atom       0.85200603      5.12285140      5.62169629 H
atom       2.04861921      0.20738404      1.43114838 H
atom       0.71806919      2.41414691      5.00064149 H
atom       2.18255679      2.91608897      2.05220440 H
atom       2.65842440      3.39818325      5.50814381 H
atom       0.24220131      1.93205210      1.54470074 H
atom      -1.11272115      0.71506664      5.06618735 H
atom       4.01334658      4.61516925      1.98665891 H
atom       3.70254201      1.74810406      0.08076988 H
atom      -0.80191672      3.58213131      6.97207424 H
atom       0.54054490      4.36979182      3.46152223 H
atom       2.36008108      0.96044381      3.59132398 H
# 
# What follows is the current estimated Hessian matrix constructed by the BFGS algorithm.
# This is NOT the true Hessian matrix of the system.
# If you do not want this information here, switch it off using the "hessian_to_restart_geometry" keyword.
# 
trust_radius             0.2000000030
hessian_file
