name
1.0
	5.43860738	0.0	0.0
	-0.02006085	5.40181292	0.0
	-2.60767585	-0.10302381	7.11263
	C	H
	12	12
Cartesian
1.7327632	5.20859699	6.25844875	
1.16786237	0.12163858	0.79439543	
-0.1548472	2.525577	4.35705254	
3.05547341	2.80465829	2.69579295	
2.73331623	4.23494995	6.20226888	
0.16730903	1.09528546	0.85057563	
-1.17022727	1.56635375	4.38754887	
4.07085308	3.76388219	2.66529743	
4.48440088	0.98908888	0.02431477	
-1.58377556	4.3411465	7.02852986	
-0.25475052	3.62351285	3.49813301	
3.15537636	1.70672292	3.55471295	
0.85200603	5.1228514	5.62169629	
2.04861921	0.20738404	1.43114838	
0.71806919	2.41414691	5.00064149	
2.18255679	2.91608897	2.0522044	
2.6584244	3.39818325	5.50814381	
0.24220131	1.9320521	1.54470074	
-1.11272115	0.71506664	5.06618735	
4.01334658	4.61516925	1.98665891	
3.70254201	1.74810406	0.08076988	
-0.80191672	3.58213131	6.97207424	
0.5405449	4.36979182	3.46152223	
2.36008108	0.96044381	3.59132398	
