# 
# This is the geometry file that corresponds to the current relaxation step.
# If you do not want this file to be written, set the "write_restart_geometry" flag to .false.
#  aims_uuid : 25A4BD5A-E999-4D9A-ACA7-A3CE3195343F                                
# 
lattice_vector      8.39130557      0.00000000      0.00000000
lattice_vector     -0.03153798      6.03803813      0.00000000
lattice_vector     -6.61497060     -0.41780225      9.09104307
atom      -1.60359042      0.13220974      3.42715742 C
atom       2.57727610      2.68785806      3.40618288 C
atom      -0.79849027      0.93782804      2.65537911 C
atom      -1.56084300      3.73262412      6.67292310 C
atom      -0.35844019      0.51463259      1.36399807 C
atom      -1.97772191      3.21070225      7.93546947 C
atom       3.84687879      2.49682136      1.33330750 C
atom      -2.83112954      3.92187927      8.79157723 C
atom       4.70028642      1.78564434      0.47719973 C
atom      -5.72395210      0.45989249      8.38311377 C
atom       3.37480048      3.80668656      0.93261545 C
atom      -4.88993016      1.26409875      7.55055556 C
atom       2.49090744      4.51237229      1.80233403 C
atom      -2.04481419      4.89185515      2.95100290 C
atom      -4.47733450      0.81566846      6.31777408 C
atom       2.09580035      3.96625784      3.00137996 C
atom       3.47274730      5.57531387      5.84161956 C
atom       2.66764715      4.76969557      6.61339786 C
atom       1.40945713      4.39189741      8.71508347 C
atom       7.59310897      5.24763112      0.88566321 C
atom       6.75908704      4.44342486      1.71822142 C
atom      -0.70811922      3.01966555      5.86259409 C
atom       3.42999989      1.97489949      2.59585387 C
atom       0.45969975      1.31562620      0.55369350 C
atom      -1.50564359      1.90083705      8.33616152 C
atom      -0.62175056      1.19515132      7.46644294 C
atom      -0.22664347      1.74126577      6.26739701 C
atom       2.22759706      5.19289102      7.90477891 C
atom      -1.92646881      0.47451279      4.41239783 H
atom      -0.39801201      3.43895202      4.90326250 H
atom       2.26716890      2.26857159      4.36551448 H
atom      -0.48615556      1.92149980      3.01212875 H
atom       2.35531244      3.78602381      6.25664822 H
atom      -1.92845684      4.71589950      6.37033388 H
atom       3.79761373      0.99162411      2.89844309 H
atom      -3.19645892      4.90664240      8.48719537 H
atom       5.06561580      0.80088121      0.78158160 H
atom      -4.57936979      2.24448372      7.91418649 H
atom      -0.25775015      0.21356174      7.77479300 H
atom       2.12690703      5.49396187      1.49398397 H
atom      -3.83196840      1.44603960      5.70143294 H
atom       0.45642605      1.18657037      5.62030102 H
atom       1.09453946      3.40924793      8.35345850 H
atom       6.44852667      3.46303989      1.35459049 H
atom       5.70112528      4.26148401      3.56734404 H
atom       0.77461742      2.29827568      0.91531848 H
atom       1.41273084      4.52095324      3.64847595 H
atom       3.79562569      5.23301082      4.85637915 H
# 
# What follows is the current estimated Hessian matrix constructed by the BFGS algorithm.
# This is NOT the true Hessian matrix of the system.
# If you do not want this information here, switch it off using the "hessian_to_restart_geometry" keyword.
# 
trust_radius             0.0001133688
hessian_file
