name
1.0
	8.39130557	0.0	0.0
	-0.03153798	6.03803813	0.0
	-6.6149706	-0.41780225	9.09104307
	C	H
	28	20
Cartesian
-1.60359042	0.13220974	3.42715742	
2.5772761	2.68785806	3.40618288	
-0.79849027	0.93782804	2.65537911	
-1.560843	3.73262412	6.6729231	
-0.35844019	0.51463259	1.36399807	
-1.97772191	3.21070225	7.93546947	
3.84687879	2.49682136	1.3333075	
-2.83112954	3.92187927	8.79157723	
4.70028642	1.78564434	0.47719973	
-5.7239521	0.45989249	8.38311377	
3.37480048	3.80668656	0.93261545	
-4.88993016	1.26409875	7.55055556	
2.49090744	4.51237229	1.80233403	
-2.04481419	4.89185515	2.9510029	
-4.4773345	0.81566846	6.31777408	
2.09580035	3.96625784	3.00137996	
3.4727473	5.57531387	5.84161956	
2.66764715	4.76969557	6.61339786	
1.40945713	4.39189741	8.71508347	
7.59310897	5.24763112	0.88566321	
6.75908704	4.44342486	1.71822142	
-0.70811922	3.01966555	5.86259409	
3.42999989	1.97489949	2.59585387	
0.45969975	1.3156262	0.5536935	
-1.50564359	1.90083705	8.33616152	
-0.62175056	1.19515132	7.46644294	
-0.22664347	1.74126577	6.26739701	
2.22759706	5.19289102	7.90477891	
-1.92646881	0.47451279	4.41239783	
-0.39801201	3.43895202	4.9032625	
2.2671689	2.26857159	4.36551448	
-0.48615556	1.9214998	3.01212875	
2.35531244	3.78602381	6.25664822	
-1.92845684	4.7158995	6.37033388	
3.79761373	0.99162411	2.89844309	
-3.19645892	4.9066424	8.48719537	
5.0656158	0.80088121	0.7815816	
-4.57936979	2.24448372	7.91418649	
-0.25775015	0.21356174	7.774793	
2.12690703	5.49396187	1.49398397	
-3.8319684	1.4460396	5.70143294	
0.45642605	1.18657037	5.62030102	
1.09453946	3.40924793	8.3534585	
6.44852667	3.46303989	1.35459049	
5.70112528	4.26148401	3.56734404	
0.77461742	2.29827568	0.91531848	
1.41273084	4.52095324	3.64847595	
3.79562569	5.23301082	4.85637915	
