# 
# This is the geometry file that corresponds to the current relaxation step.
# If you do not want this file to be written, set the "write_restart_geometry" flag to .false.
#  aims_uuid : 88516808-E0DD-420E-A3FA-D419CFAF5B4D                                
# 
lattice_vector      4.17927447      0.00000000      0.00000000
lattice_vector      0.03284434     12.59858339      0.00000000
lattice_vector     -0.02705644     -0.13843818      6.99521571
atom       0.92149961     11.90877232      1.64543071 C
atom       3.22737753      0.55905730      5.52426515 C
atom       1.16522673      5.60915645      2.02833612 C
atom       2.98365078      6.85867323      5.14135937 C
atom       1.28218623     10.98714688      2.81099793 C
atom       2.86669111      1.48068271      4.35869784 C
atom       0.80009584      4.69857904      0.85600087 C
atom       3.34878160      7.76925059      6.31369469 C
atom       0.96406185      9.51793400      2.53119693 C
atom       3.18481535      2.94989561      4.63849886 C
atom       1.10637035      3.22586325      1.13025789 C
atom       3.04250711      9.24196638      6.03943773 C
atom       4.01987019     11.88776533      1.43540574 H
atom       0.12900696      0.58006406      5.73429012 H
atom       2.24494523      5.57515650      2.24267564 H
atom       1.90393226      6.89267304      4.92701991 H
atom       1.43967660     11.60320186      0.72274863 H
atom       2.70920061      0.86462799      6.44694719 H
atom       0.64028403      5.30192416      2.94670394 H
atom       3.50859339      7.16590570      4.22299156 H
atom       1.16586847      0.35382393      1.85290610 H
atom       2.98300843     12.11400573      5.31678987 H
atom       0.89942576      6.65697208      1.82690063 H
atom       3.24945191      5.81085762      5.34279475 H
atom       0.75166988     11.31664130      3.72099410 H
atom       3.39720765      1.15118829      3.44870179 H
atom       1.33608541      5.02939871     -0.05048742 H
atom       2.83984842      7.57686904      0.22496722 H
atom       2.35602587     11.09039337      3.03988334 H
atom       1.79285151      1.37743616      4.12981222 H
atom       3.90707808      4.81158262      0.62430965 H
atom       0.24179934      7.65624700      6.54538597 H
atom       4.06555865      9.36480178      2.36176019 H
atom       0.08331855      3.10302796      4.80793547 H
atom       2.18248302      3.06513977      1.30364997 H
atom       1.96639443      9.40268991      5.86604573 H
atom       1.48982967      9.16736969      1.62910124 H
atom       2.65904760      3.30045981      5.54059463 H
atom       0.57437831      2.87505253      2.02880107 H
atom       3.57449909      9.59277711      5.14089452 H
atom       1.26820793      8.87020304      3.36634538 H
atom       2.88066908      3.59762657      3.80335048 H
atom       0.80153078      2.58384215      0.29131185 H
atom       3.34734676      9.88398746      6.87838376 H
# 
# What follows is the current estimated Hessian matrix constructed by the BFGS algorithm.
# This is NOT the true Hessian matrix of the system.
# If you do not want this information here, switch it off using the "hessian_to_restart_geometry" keyword.
# 
trust_radius             0.0350164055
hessian_file
