name
1.0
	4.17927447	0.0	0.0
	0.03284434	12.59858339	0.0
	-0.02705644	-0.13843818	6.99521571
	C	H
	12	32
Cartesian
0.92149961	11.90877232	1.64543071	
3.22737753	0.5590573	5.52426515	
1.16522673	5.60915645	2.02833612	
2.98365078	6.85867323	5.14135937	
1.28218623	10.98714688	2.81099793	
2.86669111	1.48068271	4.35869784	
0.80009584	4.69857904	0.85600087	
3.3487816	7.76925059	6.31369469	
0.96406185	9.517934	2.53119693	
3.18481535	2.94989561	4.63849886	
1.10637035	3.22586325	1.13025789	
3.04250711	9.24196638	6.03943773	
4.01987019	11.88776533	1.43540574	
0.12900696	0.58006406	5.73429012	
2.24494523	5.5751565	2.24267564	
1.90393226	6.89267304	4.92701991	
1.4396766	11.60320186	0.72274863	
2.70920061	0.86462799	6.44694719	
0.64028403	5.30192416	2.94670394	
3.50859339	7.1659057	4.22299156	
1.16586847	0.35382393	1.8529061	
2.98300843	12.11400573	5.31678987	
0.89942576	6.65697208	1.82690063	
3.24945191	5.81085762	5.34279475	
0.75166988	11.3166413	3.7209941	
3.39720765	1.15118829	3.44870179	
1.33608541	5.02939871	-0.05048742	
2.83984842	7.57686904	0.22496722	
2.35602587	11.09039337	3.03988334	
1.79285151	1.37743616	4.12981222	
3.90707808	4.81158262	0.62430965	
0.24179934	7.656247	6.54538597	
4.06555865	9.36480178	2.36176019	
0.08331855	3.10302796	4.80793547	
2.18248302	3.06513977	1.30364997	
1.96639443	9.40268991	5.86604573	
1.48982967	9.16736969	1.62910124	
2.6590476	3.30045981	5.54059463	
0.57437831	2.87505253	2.02880107	
3.57449909	9.59277711	5.14089452	
1.26820793	8.87020304	3.36634538	
2.88066908	3.59762657	3.80335048	
0.80153078	2.58384215	0.29131185	
3.34734676	9.88398746	6.87838376	
