name
1.0
	5.70564078	0.0	0.0
	-0.10361877	5.57067706	0.0
	-3.44137146	-0.40694478	7.69293966
	C	H
	8	20
Cartesian
-0.30550015	1.16864568	3.57210944	
2.37154388	4.09033895	4.38363285	
4.12648569	4.16439996	0.5685519	
-2.06030953	1.09456531	7.38728847	
0.52420137	0.17191662	4.38212147	
1.54187666	5.08711772	3.57364756	
-0.10796233	2.74316063	7.43881431	
2.17413204	2.51582149	0.51701203	
-1.0956057	1.62607178	4.18601926	
3.16175148	3.63304379	3.76975617	
1.50760896	4.19364344	7.67588532	
0.55856394	1.06533584	0.27996119	
-0.79018157	0.67516204	2.71485073	
2.85609277	4.58374336	5.2410123	
4.56454975	3.69270344	1.46315057	
-2.49836839	1.56624146	6.49267655	
0.32399219	1.9807342	3.17440651	
1.74205852	3.27815653	4.78115545	
3.48250614	4.98992684	0.91172472	
-1.41632826	0.2690307	7.04413808	
0.96188869	0.6792952	5.25954964	
1.10420184	4.57978437	2.69618713	
-0.50234057	3.22968573	6.52851019	
2.56851104	2.02931147	1.42732367	
-0.13699244	-0.61441498	4.7872056	
2.30671115	0.3027792	3.1686135	
0.56966945	1.9465086	7.08641933	
1.49649527	3.31247458	0.86939497	
