# 
# This is the geometry file that corresponds to the current relaxation step.
# If you do not want this file to be written, set the "write_restart_geometry" flag to .false.
#  aims_uuid : E5160103-7BE1-4F3E-A8AE-D11108B69EF4                                
# 
lattice_vector     12.86336068      0.00000000      0.00000000
lattice_vector      0.03961090      3.83846375      0.00000000
lattice_vector     -2.87341716     -0.05239811     17.36839391
atom       6.43566873      3.40022453      7.79026765 C
atom       3.61785320      0.52648503      9.53298489 C
atom      11.51849196      1.48158339      0.84866125 C
atom      -1.46497148      2.44511399     16.47459169 C
atom       7.64914251      0.08989578      8.03599599 C
atom       2.40437918      3.83681485      9.28725549 C
atom      10.26565575      2.00831410      0.59951392 C
atom      -0.21213546      1.91838250     16.72373839 C
atom       8.39735514      0.62996511      6.97486212 C
atom       1.65616610      3.29674410     10.34838832 C
atom       9.51327869      2.54625553      1.65880018 C
atom       0.54024179      1.38044296     15.66445131 C
atom       7.88207786      0.64267726      5.68972436 C
atom       2.17144325      3.28402933     11.63352608 C
atom      10.02516635      2.55978041      2.94532317 C
atom       0.02835454      1.36692079     14.37792812 C
atom       6.70339647      0.64981856      2.95201270 C
atom       3.35012451      3.27688188     14.37123768 C
atom      11.19948868      2.57212025      5.68575714 C
atom      -1.14596680      1.35458708     11.63749360 C
atom       6.13452925      0.62054364      1.69032613 C
atom       3.91899161      3.30615410     15.63292435 C
atom      11.76391574      2.54071805      6.94938020 C
atom      -1.71039351      1.38599189     10.37387044 C
atom       4.86689857      0.04294143      1.49441008 C
atom       5.18662244      3.88375553     15.82884162 C
atom       0.16587405      1.95944181      7.14911898 C
atom       9.88764824      1.96726854     10.17413244 C
atom       4.21678155      3.35898456      2.57265622 C
atom       5.83673968      0.56771444     14.75059661 C
atom       0.85866669      1.43746494      6.07267120 C
atom       9.19485524      2.48924311     11.25058111 C
atom       4.04703867      2.86090172      4.98813093 C
atom       6.00648299      1.06580210     12.33512291 C
atom       1.03554610      0.94288372      3.65746711 C
atom       9.01797520      2.98381927     13.66578619 C
atom       4.57841228      2.87220009      6.24386388 C
atom       5.47510957      1.05450618     11.07938985 C
atom       0.50823806      0.95467433      2.40012971 C
atom       9.54528288      2.97202614     14.92312371 C
atom       5.88424904      3.40416716      6.48858962 C
atom       4.16927269      0.52253990     10.83466299 C
atom      12.06591180      1.48523939      2.15203828 C
atom      -2.01239094      2.44146060     15.17121449 C
atom       6.60142915      0.11504415      5.40638141 C
atom       3.45209221      3.81166124     11.91687010 C
atom      11.30612384      2.03455845      3.23212518 C
atom      -1.25260273      1.89214361     14.09112671 C
atom       6.03039330      0.11227672      4.07191764 C
atom       4.02312794      3.81442583     13.25133389 C
atom      11.87422684      2.03295277      4.56788434 C
atom      -1.82070531      1.89375215     12.75536734 C
atom       4.77133272      3.38777127      3.87312361 C
atom       5.28218866      0.53893052     13.45012911 C
atom       0.30813979      1.46851076      4.77052031 C
atom       9.74538181      2.45819458     12.55273211 C
atom       5.84704347      2.97492568      8.60469444 H
atom       4.20647880      0.95178498      8.71855893 H
atom      12.11127866      1.06056049      0.03518636 H
atom      -2.05775834      2.86613538     17.28806724 H
atom       8.05513594      0.09815883      9.04790625 H
atom       1.95877499     -0.00990995      8.27534518 H
atom       6.99003622      1.96568118     16.95455521 H
atom       3.06348373      1.96101331      0.36869725 H
atom       9.38873955      1.04963887      7.15331518 H
atom       0.66478143      2.87707132     10.16993447 H
atom       8.52139794      2.96338072      1.47735997 H
atom       1.53212234      0.96331708     15.84589107 H
atom       8.48014046      1.08333849      4.89093963 H
atom       1.57338033      2.84336695     12.43230993 H
atom       9.42400334      2.99835548      3.74288709 H
atom       0.62951774      0.92834724     13.58036349 H
atom       7.68590661      1.10554912      3.06893382 H
atom       2.36761426      2.82115178     14.25431554 H
atom      10.21825896      3.02931803      5.56575835 H
atom      -0.16473709      0.89738915     11.75749171 H
atom       6.67161736      1.05570759      0.84544833 H
atom       3.38190333      2.87098852     16.47780120 H
atom      11.22461149      2.97521311      7.79323663 H
atom      -1.17108896      0.95149870      9.53001323 H
atom       4.46856069      3.84182067      0.49708060 H
atom       5.58496032      0.08487405     16.82617118 H
atom       0.59939290      1.91645162      8.14806743 H
atom       9.45412975      2.01026085      9.17518390 H
atom       3.23524321      2.89676298      2.43700201 H
atom       6.81827813      1.02993547     14.88625185 H
atom       1.83978468      0.97486358      6.21080657 H
atom       8.21373726      2.95184470     11.11244643 H
atom       3.05492220      2.44421817      4.81097213 H
atom       6.99859950      1.48248521     12.51228263 H
atom       2.02785326      0.52870544      3.83737694 H
atom       8.02566804      3.39799775     13.48587694 H
atom       4.01429629      2.46890922      7.08777563 H
atom       6.03922568      1.45779867     10.23547896 H
atom       1.07625230      0.55432917      1.55745389 H
atom       8.97726827      3.37236936     15.76580020 H
# 
# What follows is the current estimated Hessian matrix constructed by the BFGS algorithm.
# This is NOT the true Hessian matrix of the system.
# If you do not want this information here, switch it off using the "hessian_to_restart_geometry" keyword.
# 
trust_radius             0.1657209344
hessian_file
