name
1.0
	12.86336068	0.0	0.0
	0.0396109	3.83846375	0.0
	-2.87341716	-0.05239811	17.36839391
	C	H
	56	40
Cartesian
6.43566873	3.40022453	7.79026765	
3.6178532	0.52648503	9.53298489	
11.51849196	1.48158339	0.84866125	
-1.46497148	2.44511399	16.47459169	
7.64914251	0.08989578	8.03599599	
2.40437918	3.83681485	9.28725549	
10.26565575	2.0083141	0.59951392	
-0.21213546	1.9183825	16.72373839	
8.39735514	0.62996511	6.97486212	
1.6561661	3.2967441	10.34838832	
9.51327869	2.54625553	1.65880018	
0.54024179	1.38044296	15.66445131	
7.88207786	0.64267726	5.68972436	
2.17144325	3.28402933	11.63352608	
10.02516635	2.55978041	2.94532317	
0.02835454	1.36692079	14.37792812	
6.70339647	0.64981856	2.9520127	
3.35012451	3.27688188	14.37123768	
11.19948868	2.57212025	5.68575714	
-1.1459668	1.35458708	11.6374936	
6.13452925	0.62054364	1.69032613	
3.91899161	3.3061541	15.63292435	
11.76391574	2.54071805	6.9493802	
-1.71039351	1.38599189	10.37387044	
4.86689857	0.04294143	1.49441008	
5.18662244	3.88375553	15.82884162	
0.16587405	1.95944181	7.14911898	
9.88764824	1.96726854	10.17413244	
4.21678155	3.35898456	2.57265622	
5.83673968	0.56771444	14.75059661	
0.85866669	1.43746494	6.0726712	
9.19485524	2.48924311	11.25058111	
4.04703867	2.86090172	4.98813093	
6.00648299	1.0658021	12.33512291	
1.0355461	0.94288372	3.65746711	
9.0179752	2.98381927	13.66578619	
4.57841228	2.87220009	6.24386388	
5.47510957	1.05450618	11.07938985	
0.50823806	0.95467433	2.40012971	
9.54528288	2.97202614	14.92312371	
5.88424904	3.40416716	6.48858962	
4.16927269	0.5225399	10.83466299	
12.0659118	1.48523939	2.15203828	
-2.01239094	2.4414606	15.17121449	
6.60142915	0.11504415	5.40638141	
3.45209221	3.81166124	11.9168701	
11.30612384	2.03455845	3.23212518	
-1.25260273	1.89214361	14.09112671	
6.0303933	0.11227672	4.07191764	
4.02312794	3.81442583	13.25133389	
11.87422684	2.03295277	4.56788434	
-1.82070531	1.89375215	12.75536734	
4.77133272	3.38777127	3.87312361	
5.28218866	0.53893052	13.45012911	
0.30813979	1.46851076	4.77052031	
9.74538181	2.45819458	12.55273211	
5.84704347	2.97492568	8.60469444	
4.2064788	0.95178498	8.71855893	
12.11127866	1.06056049	0.03518636	
-2.05775834	2.86613538	17.28806724	
8.05513594	0.09815883	9.04790625	
1.95877499	-0.00990995	8.27534518	
6.99003622	1.96568118	16.95455521	
3.06348373	1.96101331	0.36869725	
9.38873955	1.04963887	7.15331518	
0.66478143	2.87707132	10.16993447	
8.52139794	2.96338072	1.47735997	
1.53212234	0.96331708	15.84589107	
8.48014046	1.08333849	4.89093963	
1.57338033	2.84336695	12.43230993	
9.42400334	2.99835548	3.74288709	
0.62951774	0.92834724	13.58036349	
7.68590661	1.10554912	3.06893382	
2.36761426	2.82115178	14.25431554	
10.21825896	3.02931803	5.56575835	
-0.16473709	0.89738915	11.75749171	
6.67161736	1.05570759	0.84544833	
3.38190333	2.87098852	16.4778012	
11.22461149	2.97521311	7.79323663	
-1.17108896	0.9514987	9.53001323	
4.46856069	3.84182067	0.4970806	
5.58496032	0.08487405	16.82617118	
0.5993929	1.91645162	8.14806743	
9.45412975	2.01026085	9.1751839	
3.23524321	2.89676298	2.43700201	
6.81827813	1.02993547	14.88625185	
1.83978468	0.97486358	6.21080657	
8.21373726	2.9518447	11.11244643	
3.0549222	2.44421817	4.81097213	
6.9985995	1.48248521	12.51228263	
2.02785326	0.52870544	3.83737694	
8.02566804	3.39799775	13.48587694	
4.01429629	2.46890922	7.08777563	
6.03922568	1.45779867	10.23547896	
1.0762523	0.55432917	1.55745389	
8.97726827	3.37236936	15.7658002	
