# 
# This is the geometry file that corresponds to the current relaxation step.
# If you do not want this file to be written, set the "write_restart_geometry" flag to .false.
#  aims_uuid : 00F9A106-F40B-4E00-A8F5-9E013D4E6B3F                                
# 
lattice_vector     15.59500455      0.00000000      0.00000000
lattice_vector      0.07437927     10.43125742      0.00000000
lattice_vector     -0.09471423     -0.09195014      7.51258334
atom       4.08065897      1.54133541      3.20912278 C
atom      11.51498723      8.86965574      4.15956627 C
atom       3.62971851      3.60667054      6.95792859 C
atom      11.96592840      6.80432141      0.41076179 C
atom      11.49548299      1.58902706      0.40524308 C
atom       4.10016358      8.82196511      6.96344689 C
atom      11.88805090      3.64788614      4.17052622 C
atom       3.70759565      6.76310415      3.19816096 C
atom       4.56841822      0.50429496      4.03204760 C
atom      11.02722775      9.90669682      3.33664238 C
atom       3.22522195      4.73295418      0.26434935 C
atom      12.37042519      5.67803781      7.10434114 C
atom      10.90330807      0.46936544      7.08947113 C
atom       4.69233857      9.94162664      0.27921890 C
atom      12.37853078      4.69102386      3.35668952 C
atom       3.21711649      5.71996729      4.01199924 C
atom       5.90932018      0.46110034      4.40774146 C
atom       9.68632567      9.94989172      2.96094891 C
atom       1.88285483      4.76552485      0.63583765 C
atom      13.71279236      5.64546726      6.73285295 C
atom       9.56046877      0.43707735      6.71943549 C
atom       6.03517786      9.97391461      0.64925452 C
atom      13.72066333      4.73742945      2.98527259 C
atom       1.87498432      5.67356231      4.38341762 C
atom       6.80273256      1.44257369      3.95585487 C
atom       8.79291343      8.96841808      3.41283507 C
atom       0.99872852      3.77644506      0.18280984 C
atom      14.59691837      6.63454751      7.18588026 C
atom       8.67471737      1.42039499      7.18187309 C
atom       6.92092917      8.99059689      0.18681691 C
atom      14.61264394      3.75235107      3.43190548 C
atom       0.98300344      6.65864067      3.93678510 C
atom       6.33816006      2.46441625      3.12440884 C
atom       9.25748603      7.94657522      4.24428067 C
atom       1.38040685      2.66393375      6.86908990 C
atom      14.21523997      7.74705849      0.49960061 C
atom       9.24430740      2.52646779      0.50430777 C
atom       6.35133903      7.88452413      6.86438230 C
atom      14.14495524      2.72337804      4.25295079 C
atom       1.45069177      7.68761385      3.11573981 C
atom       4.99158156      2.51676930      2.75913293 C
atom      10.60406462      7.89422195      4.60955627 C
atom       2.72852524      2.62189157      6.50881697 C
atom      12.86712155      7.78910044      0.85987355 C
atom      10.59250152      2.56760774      0.86419904 C
atom       5.00314494      7.84338432      6.50449100 C
atom      12.79751033      2.66851829      4.61466349 C
atom       2.79813625      7.74247282      2.75402535 C
atom       2.67675641      1.64616079      2.79698429 C
atom      12.91889010      8.76482970      4.57170365 C
atom       5.03591920      3.51354300      6.55078726 C
atom      10.55972756      6.89744862      0.81790298 C
atom      12.90143763      1.68155326      0.81333912 C
atom       2.69420910      8.72943921      6.55535051 C
atom      10.48277853      3.53988204      4.57796216 C
atom       5.11286738      6.87110751      2.79072269 C
atom       1.65235930      0.88233498      3.21616935 C
atom      13.94328718      9.52865524      4.15251806 C
atom       6.05421369      4.27937680      6.98105575 C
atom       9.54143321      6.13161481      0.38763421 C
atom      13.92228806      0.92468298      0.37341447 C
atom       1.67335877      9.48630984      6.99527479 C
atom       9.45962089      4.30523565      4.15870229 C
atom       6.13602519      6.10575335      3.20998103 C
atom       3.96998747     10.15068188      4.38263615 H
atom      11.62565839      0.26031014      2.98605421 H
atom       3.89092115      5.52382859      0.61433520 H
atom      11.70472602      4.88716347      6.75435505 H
atom      11.64432448     10.11384516      6.73222141 H
atom       3.95132223      0.29714699      0.63646862 H
atom      11.70630275      5.47787270      3.00951325 H
atom       3.88934472      4.93311860      4.35917545 H
atom       6.33161615     10.08492511      5.05525926 H
atom       9.26402957      0.32606726      2.31343158 H
atom       1.52551624      5.57068891      1.28048713 H
atom      14.07013110      4.84030317      6.08820358 H
atom       9.27881613     10.06693377      6.06923262 H
atom       6.31683059      0.34405817      1.29945737 H
atom      14.07080659      5.54929397      2.34444652 H
atom       1.52484148      4.86169812      5.02424435 H
atom       7.85516902      1.40304728      4.24094124 H
atom       7.74047688      9.00794460      3.12774903 H
atom      15.53990081      3.80835522      0.46433796 H
atom       0.05574631      6.60263697      6.90435293 H
atom       7.62044697      1.38848854      6.90234268 H
atom       7.97519958      9.02250324      0.46634727 H
atom       0.07095717      3.79356311      3.14964413 H
atom      15.52469047      6.61742861      4.21904743 H
atom       7.02843069      3.22370531      2.75377200 H
atom       8.56721545      7.18728594      4.61491723 H
atom       0.69907250      1.89540031      6.50121849 H
atom      14.89657427      8.51559187      0.86747228 H
atom       8.56116377      3.28943794      0.88069936 H
atom       7.03448259      7.12155394      6.48799065 H
atom      14.83379166      1.95983097      4.61707860 H
atom       0.76185525      8.45116115      2.75161273 H
atom       4.63338578      3.31906881      2.11100550 H
atom      10.96226038      7.09192239      5.25768364 H
atom       3.09609054      1.81931367      5.86688461 H
atom      12.49955602      8.59167840      1.50180568 H
atom      10.95887700      3.36469191      1.51356255 H
atom       4.63676941      7.04630020      5.85512744 H
atom      12.43759840      1.86059083      5.25490918 H
atom       3.15804801      8.55040066      2.11378002 H
atom       2.46901105      2.44414383      2.07624026 H
atom      13.12663562      7.96684684      5.29244781 H
atom       5.25144237      2.72283115      5.82477367 H
atom      10.34420409      7.68816069      1.54391631 H
atom      13.11472870      2.46487782      1.54792413 H
atom       2.48091794      7.94611435      5.82076586 H
atom      10.27274631      2.73796884      5.29398195 H
atom       5.32289929      7.67302179      2.07470408 H
atom       1.77241562      0.07842935      3.94644743 H
atom      13.82323091     10.33256012      3.42223917 H
atom       6.02125857      5.16758025      0.20565061 H
atom       9.57438830      5.24341191      7.16303883 H
atom      13.70237927      0.04524909      7.13898459 H
atom       1.89326762     10.36574381      0.22970458 H
atom       9.58312208      5.11248556      3.43268345 H
atom       6.01252358      5.29849977      3.93599601 H
atom       0.64414395      1.05382669      2.83605203 H
atom      14.95150275      9.35716313      4.53263464 H
atom       7.06480467      4.11633407      6.60340307 H
atom       8.53084202      6.29465787      0.76528624 H
atom      14.93270885      1.08713142      0.75176921 H
atom       0.66293801      9.32386141      6.61691997 H
atom       8.45010753      4.13159302      4.53428105 H
atom       7.14553791      6.27939479      2.83440011 H
# 
# What follows is the current estimated Hessian matrix constructed by the BFGS algorithm.
# This is NOT the true Hessian matrix of the system.
# If you do not want this information here, switch it off using the "hessian_to_restart_geometry" keyword.
# 
trust_radius             0.0001501411
hessian_file
