name
1.0
	15.59500455	0.0	0.0
	0.07437927	10.43125742	0.0
	-0.09471423	-0.09195014	7.51258334
	C	H
	64	64
Cartesian
4.08065897	1.54133541	3.20912278	
11.51498723	8.86965574	4.15956627	
3.62971851	3.60667054	6.95792859	
11.9659284	6.80432141	0.41076179	
11.49548299	1.58902706	0.40524308	
4.10016358	8.82196511	6.96344689	
11.8880509	3.64788614	4.17052622	
3.70759565	6.76310415	3.19816096	
4.56841822	0.50429496	4.0320476	
11.02722775	9.90669682	3.33664238	
3.22522195	4.73295418	0.26434935	
12.37042519	5.67803781	7.10434114	
10.90330807	0.46936544	7.08947113	
4.69233857	9.94162664	0.2792189	
12.37853078	4.69102386	3.35668952	
3.21711649	5.71996729	4.01199924	
5.90932018	0.46110034	4.40774146	
9.68632567	9.94989172	2.96094891	
1.88285483	4.76552485	0.63583765	
13.71279236	5.64546726	6.73285295	
9.56046877	0.43707735	6.71943549	
6.03517786	9.97391461	0.64925452	
13.72066333	4.73742945	2.98527259	
1.87498432	5.67356231	4.38341762	
6.80273256	1.44257369	3.95585487	
8.79291343	8.96841808	3.41283507	
0.99872852	3.77644506	0.18280984	
14.59691837	6.63454751	7.18588026	
8.67471737	1.42039499	7.18187309	
6.92092917	8.99059689	0.18681691	
14.61264394	3.75235107	3.43190548	
0.98300344	6.65864067	3.9367851	
6.33816006	2.46441625	3.12440884	
9.25748603	7.94657522	4.24428067	
1.38040685	2.66393375	6.8690899	
14.21523997	7.74705849	0.49960061	
9.2443074	2.52646779	0.50430777	
6.35133903	7.88452413	6.8643823	
14.14495524	2.72337804	4.25295079	
1.45069177	7.68761385	3.11573981	
4.99158156	2.5167693	2.75913293	
10.60406462	7.89422195	4.60955627	
2.72852524	2.62189157	6.50881697	
12.86712155	7.78910044	0.85987355	
10.59250152	2.56760774	0.86419904	
5.00314494	7.84338432	6.504491	
12.79751033	2.66851829	4.61466349	
2.79813625	7.74247282	2.75402535	
2.67675641	1.64616079	2.79698429	
12.9188901	8.7648297	4.57170365	
5.0359192	3.513543	6.55078726	
10.55972756	6.89744862	0.81790298	
12.90143763	1.68155326	0.81333912	
2.6942091	8.72943921	6.55535051	
10.48277853	3.53988204	4.57796216	
5.11286738	6.87110751	2.79072269	
1.6523593	0.88233498	3.21616935	
13.94328718	9.52865524	4.15251806	
6.05421369	4.2793768	6.98105575	
9.54143321	6.13161481	0.38763421	
13.92228806	0.92468298	0.37341447	
1.67335877	9.48630984	6.99527479	
9.45962089	4.30523565	4.15870229	
6.13602519	6.10575335	3.20998103	
3.96998747	10.15068188	4.38263615	
11.62565839	0.26031014	2.98605421	
3.89092115	5.52382859	0.6143352	
11.70472602	4.88716347	6.75435505	
11.64432448	10.11384516	6.73222141	
3.95132223	0.29714699	0.63646862	
11.70630275	5.4778727	3.00951325	
3.88934472	4.9331186	4.35917545	
6.33161615	10.08492511	5.05525926	
9.26402957	0.32606726	2.31343158	
1.52551624	5.57068891	1.28048713	
14.0701311	4.84030317	6.08820358	
9.27881613	10.06693377	6.06923262	
6.31683059	0.34405817	1.29945737	
14.07080659	5.54929397	2.34444652	
1.52484148	4.86169812	5.02424435	
7.85516902	1.40304728	4.24094124	
7.74047688	9.0079446	3.12774903	
15.53990081	3.80835522	0.46433796	
0.05574631	6.60263697	6.90435293	
7.62044697	1.38848854	6.90234268	
7.97519958	9.02250324	0.46634727	
0.07095717	3.79356311	3.14964413	
15.52469047	6.61742861	4.21904743	
7.02843069	3.22370531	2.753772	
8.56721545	7.18728594	4.61491723	
0.6990725	1.89540031	6.50121849	
14.89657427	8.51559187	0.86747228	
8.56116377	3.28943794	0.88069936	
7.03448259	7.12155394	6.48799065	
14.83379166	1.95983097	4.6170786	
0.76185525	8.45116115	2.75161273	
4.63338578	3.31906881	2.1110055	
10.96226038	7.09192239	5.25768364	
3.09609054	1.81931367	5.86688461	
12.49955602	8.5916784	1.50180568	
10.958877	3.36469191	1.51356255	
4.63676941	7.0463002	5.85512744	
12.4375984	1.86059083	5.25490918	
3.15804801	8.55040066	2.11378002	
2.46901105	2.44414383	2.07624026	
13.12663562	7.96684684	5.29244781	
5.25144237	2.72283115	5.82477367	
10.34420409	7.68816069	1.54391631	
13.1147287	2.46487782	1.54792413	
2.48091794	7.94611435	5.82076586	
10.27274631	2.73796884	5.29398195	
5.32289929	7.67302179	2.07470408	
1.77241562	0.07842935	3.94644743	
13.82323091	10.33256012	3.42223917	
6.02125857	5.16758025	0.20565061	
9.5743883	5.24341191	7.16303883	
13.70237927	0.04524909	7.13898459	
1.89326762	10.36574381	0.22970458	
9.58312208	5.11248556	3.43268345	
6.01252358	5.29849977	3.93599601	
0.64414395	1.05382669	2.83605203	
14.95150275	9.35716313	4.53263464	
7.06480467	4.11633407	6.60340307	
8.53084202	6.29465787	0.76528624	
14.93270885	1.08713142	0.75176921	
0.66293801	9.32386141	6.61691997	
8.45010753	4.13159302	4.53428105	
7.14553791	6.27939479	2.83440011	
