# 
# This is the geometry file that corresponds to the current relaxation step.
# If you do not want this file to be written, set the "write_restart_geometry" flag to .false.
#  aims_uuid : B503A1BD-7530-4D32-AF9E-C4D63ECE3783                                
# 
lattice_vector      5.41960759      0.00000000      0.00000000
lattice_vector     -0.00491432      4.92462650      0.00000000
lattice_vector     -1.88868058     -0.07019883      7.19636908
atom       0.55265154      4.87640863      0.45903729 C
atom       2.84159685      0.00956645      6.78571997 C
atom       3.78435159      2.38373340      3.18533834 C
atom      -0.39010295      2.50224115      4.05941893 C
atom       1.25531032      1.28109226      0.71266470 C
atom       2.13893803      3.60488285      6.53209252 C
atom       3.08954638      3.71636354      2.93893919 C
atom       0.30470227      1.16961102      4.30581808 C
atom      -0.63107844      4.10296357      7.18347941 H
atom       4.02532684      0.78301154      0.06127783 H
atom       3.07656154      1.67879200      3.65055769 H
atom       0.31768711      3.20718256      3.59419959 H
atom       0.27024267      4.41317597      1.42051398 H
atom       3.12400576      0.47279912      5.82424328 H
atom       4.06855747      1.92702915      2.22135105 H
atom      -0.67430884      2.95894539      5.02340622 H
atom       2.12369434      1.15813890      1.37212758 H
atom       1.27055409      3.72783624      5.87262956 H
atom       2.22207253      3.59998523      2.27677361 H
atom       1.17217603      1.28598933      4.96798377 H
atom       0.57701197      2.00475936      1.18569947 H
atom       2.81723639      2.88121571      6.05905782 H
atom       3.76997305      4.44206377      2.47228264 H
atom      -0.37572443      0.44391074      4.77247449 H
atom      -0.28031272      1.65747601      6.96900303 H
atom       3.67456097      3.22849913      0.27575417 H
atom       2.73502914      4.15706577      3.88113940 H
atom       0.65921965      0.72890887      3.36361789 H
# 
# What follows is the current estimated Hessian matrix constructed by the BFGS algorithm.
# This is NOT the true Hessian matrix of the system.
# If you do not want this information here, switch it off using the "hessian_to_restart_geometry" keyword.
# 
trust_radius             0.0738159847
hessian_file
