name
1.0
	5.41960759	0.0	0.0
	-0.00491432	4.9246265	0.0
	-1.88868058	-0.07019883	7.19636908
	C	H
	8	20
Cartesian
0.55265154	4.87640863	0.45903729	
2.84159685	0.00956645	6.78571997	
3.78435159	2.3837334	3.18533834	
-0.39010295	2.50224115	4.05941893	
1.25531032	1.28109226	0.7126647	
2.13893803	3.60488285	6.53209252	
3.08954638	3.71636354	2.93893919	
0.30470227	1.16961102	4.30581808	
-0.63107844	4.10296357	7.18347941	
4.02532684	0.78301154	0.06127783	
3.07656154	1.678792	3.65055769	
0.31768711	3.20718256	3.59419959	
0.27024267	4.41317597	1.42051398	
3.12400576	0.47279912	5.82424328	
4.06855747	1.92702915	2.22135105	
-0.67430884	2.95894539	5.02340622	
2.12369434	1.1581389	1.37212758	
1.27055409	3.72783624	5.87262956	
2.22207253	3.59998523	2.27677361	
1.17217603	1.28598933	4.96798377	
0.57701197	2.00475936	1.18569947	
2.81723639	2.88121571	6.05905782	
3.76997305	4.44206377	2.47228264	
-0.37572443	0.44391074	4.77247449	
-0.28031272	1.65747601	6.96900303	
3.67456097	3.22849913	0.27575417	
2.73502914	4.15706577	3.8811394	
0.65921965	0.72890887	3.36361789	
