# 
# This is the geometry file that corresponds to the current relaxation step.
# If you do not want this file to be written, set the "write_restart_geometry" flag to .false.
#  aims_uuid : D5C8AAD3-C4BE-4E72-ACE4-78822AAF090D                                
# 
lattice_vector      9.45829964      0.00000000      0.00000000
lattice_vector      0.00000000      6.01000023      0.00000000
lattice_vector     -2.00978419      0.00000000      8.31825015
atom       4.88210017      3.50566619      4.81720233 C
atom       2.56641523      2.50433404      3.50104741 C
atom       1.56152312      0.50066604      7.66017246 C
atom       5.88699226      5.50933417      0.65807727 C
atom       6.05373415      3.95949716      5.49689560 C
atom       1.39478125      2.05050307      2.82135414 C
atom       0.38988914      0.95449698      6.98047918 C
atom       7.05862624      5.05550323      1.33777055 C
atom       6.64339547      3.19324311      6.47551951 C
atom       0.80511992      2.81675713      1.84273024 C
atom      -0.19977216      0.18824290      6.00185528 C
atom       7.64828755      5.82175731      2.31639445 C
atom       6.09318230      1.92786981      6.83146616 C
atom       1.35533310      4.08213043      1.48678359 C
atom       0.35044103      4.93286984      5.64590865 C
atom       7.09807435      1.07713038      2.67234108 C
atom       4.97250266      1.45045163      6.19263141 C
atom       2.47601274      4.55954860      2.12561833 C
atom       1.47112068      4.45545169      6.28474341 C
atom       5.97739471      1.55454852      2.03350631 C
atom       4.33300867      2.21132401      5.16835265 C
atom       3.11550673      3.79867622      3.14989709 C
atom       2.11061465      5.21632410      7.30902216 C
atom       5.33790074      0.79367612      1.00922756 C
atom       4.25776036      4.26662606      3.81774405 C
atom       3.19075505      1.74337416      4.50050569 C
atom       4.19564711      1.26162594      0.34138059 C
atom       3.25286828      4.74837428      7.97686913 C
atom       6.46711189      4.93322735      5.22437970 H
atom       0.98140350      1.07677289      3.09387004 H
atom      -0.02348862      1.92822716      7.25299506 H
atom       7.47200401      4.08177305      1.06525467 H
atom       7.54060611      3.55766296      6.98023837 H
atom      -0.09209072      2.45233729      1.33801139 H
atom      -1.09698280      0.55266273      5.49713640 H
atom       8.54549819      5.45733748      2.82111332 H
atom       6.56515741      1.32955513      7.61423714 H
atom       0.88335798      4.68044511      0.70401261 H
atom      -0.12153406      4.33455514      4.86313767 H
atom       7.57004944      1.67544507      3.45511206 H
atom       4.55214936      0.48020625      6.46311008 H
atom       2.89636604      5.52979398      1.85513966 H
atom       1.89147399      3.48520632      6.01426475 H
atom       5.55704140      2.52479390      2.30398497 H
atom       4.67524557      5.24043082      3.54568846 H
atom       2.77326984      0.76956940      4.77256128 H
atom       3.77816188      2.23543069      0.61343616 H
atom       3.67035351      3.77456952      7.70481356 H
# 
# What follows is the current estimated Hessian matrix constructed by the BFGS algorithm.
# This is NOT the true Hessian matrix of the system.
# If you do not want this information here, switch it off using the "hessian_to_restart_geometry" keyword.
# 
trust_radius             0.2000000030
hessian_file
