name
1.0
	9.45829964	0.0	0.0
	0.0	6.01000023	0.0
	-2.00978419	0.0	8.31825015
	C	H
	28	20
Cartesian
4.88210017	3.50566619	4.81720233	
2.56641523	2.50433404	3.50104741	
1.56152312	0.50066604	7.66017246	
5.88699226	5.50933417	0.65807727	
6.05373415	3.95949716	5.4968956	
1.39478125	2.05050307	2.82135414	
0.38988914	0.95449698	6.98047918	
7.05862624	5.05550323	1.33777055	
6.64339547	3.19324311	6.47551951	
0.80511992	2.81675713	1.84273024	
-0.19977216	0.1882429	6.00185528	
7.64828755	5.82175731	2.31639445	
6.0931823	1.92786981	6.83146616	
1.3553331	4.08213043	1.48678359	
0.35044103	4.93286984	5.64590865	
7.09807435	1.07713038	2.67234108	
4.97250266	1.45045163	6.19263141	
2.47601274	4.5595486	2.12561833	
1.47112068	4.45545169	6.28474341	
5.97739471	1.55454852	2.03350631	
4.33300867	2.21132401	5.16835265	
3.11550673	3.79867622	3.14989709	
2.11061465	5.2163241	7.30902216	
5.33790074	0.79367612	1.00922756	
4.25776036	4.26662606	3.81774405	
3.19075505	1.74337416	4.50050569	
4.19564711	1.26162594	0.34138059	
3.25286828	4.74837428	7.97686913	
6.46711189	4.93322735	5.2243797	
0.9814035	1.07677289	3.09387004	
-0.02348862	1.92822716	7.25299506	
7.47200401	4.08177305	1.06525467	
7.54060611	3.55766296	6.98023837	
-0.09209072	2.45233729	1.33801139	
-1.0969828	0.55266273	5.4971364	
8.54549819	5.45733748	2.82111332	
6.56515741	1.32955513	7.61423714	
0.88335798	4.68044511	0.70401261	
-0.12153406	4.33455514	4.86313767	
7.57004944	1.67544507	3.45511206	
4.55214936	0.48020625	6.46311008	
2.89636604	5.52979398	1.85513966	
1.89147399	3.48520632	6.01426475	
5.5570414	2.5247939	2.30398497	
4.67524557	5.24043082	3.54568846	
2.77326984	0.7695694	4.77256128	
3.77816188	2.23543069	0.61343616	
3.67035351	3.77456952	7.70481356	
