# 
# This is the geometry file that corresponds to the current relaxation step.
# If you do not want this file to be written, set the "write_restart_geometry" flag to .false.
#  aims_uuid : B1826E0E-588F-463B-ABCC-6C37A34C6F0E                                
# 
lattice_vector     15.37778720      0.00000000      0.00000000
lattice_vector     -0.07554879      3.82680765      0.00000000
lattice_vector     -1.89752025     -0.27665362      8.43486863
atom       8.38683891     -0.06016427      7.46042674 C
atom       4.96317498      3.58776078      1.25903110 C
atom      12.66075498      2.10372233      1.29250101 C
atom       0.68926063      1.42387379      7.42695827 C
atom       9.01125411      0.45516642      6.32429317 C
atom       4.33875944      3.07243116      2.39516496 C
atom      12.04824293      2.52871004      2.47152198 C
atom       1.30177275      0.99888668      6.24793712 C
atom       8.36645887      0.42160820      5.07380402 C
atom       4.98355510      3.10598949      3.64565404 C
atom      12.70639985      2.39694910      3.70854951 C
atom       0.64361571      1.13064858      5.01090966 C
atom       8.97862859      0.92914378      3.88123497 C
atom       4.37138531      2.59845376      4.83822300 C
atom      12.10919014      2.81446652      4.94287991 C
atom       1.24082572      0.71313151      3.77657928 C
atom       5.02045134      2.62813412      6.04014961 C
atom       8.32956294      0.89946235      2.67930814 C
atom       0.58053342      0.84101281      2.58725431 C
atom      12.76948248      2.68658501      6.13220486 C
atom       6.34177414      3.17089871      6.15820928 C
atom       7.00824024      0.35669762      2.56124842 C
atom      14.64001310      1.39962985      2.52453555 C
atom      -1.28999744      2.12796747      6.19492370 C
atom       7.03531956      3.20974152      7.38119097 C
atom       6.31469471      0.31785439      1.33826675 C
atom      13.93574158      1.53922989      1.31535692 C
atom      -0.58572583      1.98836681      7.40410231 C
atom       7.05106665     -0.13370307      4.98614053 C
atom       6.29894770      3.66129982      3.73331737 C
atom      14.01970628      1.83019450      3.73995913 C
atom      -0.66969086      1.69740281      4.97950005 C
atom       8.90041317     -0.02119206      8.42323534 H
atom       4.44960055      3.54878901      0.29622255 H
atom      12.13859381      2.22038037      0.34081676 H
atom       1.21142197      1.30721568      8.37864246 H
atom      10.00489322      0.90600540      6.39556726 H
atom       3.34511969      2.62159330      2.32389135 H
atom      11.05534958      2.98593160      2.44530656 H
atom       2.29466646      0.54166568      6.27415217 H
atom       9.98266923      1.35034278      3.95239058 H
atom       3.36734456      2.17725490      4.76706739 H
atom      11.10845489      3.24884474      4.91469312 H
atom       2.24156104      0.27875330      3.80476600 H
atom       4.53952461      2.22757051      6.93694036 H
atom       8.81048936      1.30002654      1.78251752 H
atom       1.05057791      0.50952076      1.65722910 H
atom      12.29943860      3.01807762      7.06223016 H
atom       6.56182600      2.79444398      8.27351958 H
atom       6.78818788      0.73315154      0.44593777 H
atom      14.40049797      1.19673078      0.38825598 H
atom      -1.05048145      2.33086611      8.33120356 H
# 
# What follows is the current estimated Hessian matrix constructed by the BFGS algorithm.
# This is NOT the true Hessian matrix of the system.
# If you do not want this information here, switch it off using the "hessian_to_restart_geometry" keyword.
# 
trust_radius             0.0001940212
hessian_file
