name
1.0
	15.3777872	0.0	0.0
	-0.07554879	3.82680765	0.0
	-1.89752025	-0.27665362	8.43486863
	C	H
	32	20
Cartesian
8.38683891	-0.06016427	7.46042674	
4.96317498	3.58776078	1.2590311	
12.66075498	2.10372233	1.29250101	
0.68926063	1.42387379	7.42695827	
9.01125411	0.45516642	6.32429317	
4.33875944	3.07243116	2.39516496	
12.04824293	2.52871004	2.47152198	
1.30177275	0.99888668	6.24793712	
8.36645887	0.4216082	5.07380402	
4.9835551	3.10598949	3.64565404	
12.70639985	2.3969491	3.70854951	
0.64361571	1.13064858	5.01090966	
8.97862859	0.92914378	3.88123497	
4.37138531	2.59845376	4.838223	
12.10919014	2.81446652	4.94287991	
1.24082572	0.71313151	3.77657928	
5.02045134	2.62813412	6.04014961	
8.32956294	0.89946235	2.67930814	
0.58053342	0.84101281	2.58725431	
12.76948248	2.68658501	6.13220486	
6.34177414	3.17089871	6.15820928	
7.00824024	0.35669762	2.56124842	
14.6400131	1.39962985	2.52453555	
-1.28999744	2.12796747	6.1949237	
7.03531956	3.20974152	7.38119097	
6.31469471	0.31785439	1.33826675	
13.93574158	1.53922989	1.31535692	
-0.58572583	1.98836681	7.40410231	
7.05106665	-0.13370307	4.98614053	
6.2989477	3.66129982	3.73331737	
14.01970628	1.8301945	3.73995913	
-0.66969086	1.69740281	4.97950005	
8.90041317	-0.02119206	8.42323534	
4.44960055	3.54878901	0.29622255	
12.13859381	2.22038037	0.34081676	
1.21142197	1.30721568	8.37864246	
10.00489322	0.9060054	6.39556726	
3.34511969	2.6215933	2.32389135	
11.05534958	2.9859316	2.44530656	
2.29466646	0.54166568	6.27415217	
9.98266923	1.35034278	3.95239058	
3.36734456	2.1772549	4.76706739	
11.10845489	3.24884474	4.91469312	
2.24156104	0.2787533	3.804766	
4.53952461	2.22757051	6.93694036	
8.81048936	1.30002654	1.78251752	
1.05057791	0.50952076	1.6572291	
12.2994386	3.01807762	7.06223016	
6.561826	2.79444398	8.27351958	
6.78818788	0.73315154	0.44593777	
14.40049797	1.19673078	0.38825598	
-1.05048145	2.33086611	8.33120356	
